peakDumbCharging = 11100; 
Machine = anon_enum(16); 
machineSpeed = [3700,3700,3700,3700,3700,3700,3700,3700,3700,3700,3700,3700,3700,3700,3700,3700]; 
machineLoad = [3700,3700,3700,3700,3700,3700,3700,3700,3700,3700,3700,3700,3700,3700,3700,3700]; 
Car = anon_enum(9); 
demandCar = [11560,6760,16760,2920,18720,4680,8160,8520,2720]; 
arrivalCar = [71,65,48,46,45,44,42,41,35]; 
departureCar = [76,68,54,49,52,47,45,45,37]; 
